c Arquivo convertido de dwt__307.mtx
p edge 307 1108
e 1 2
e 1 3
e 1 4
e 1 5
e 1 6
e 1 7
e 2 3
e 2 4
e 2 7
e 2 8
e 2 9
e 2 10
e 3 4
e 3 9
e 3 10
e 3 11
e 3 12
e 4 5
e 4 6
e 4 12
e 5 6
e 5 12
e 5 13
e 5 14
e 5 15
e 6 7
e 6 14
e 6 15
e 6 16
e 7 8
e 7 16
e 7 17
e 7 18
e 7 19
e 8 9
e 8 18
e 8 19
e 8 20
e 8 30
e 8 31
e 9 10
e 9 20
e 9 21
e 10 11
e 10 20
e 10 21
e 11 12
e 11 22
e 11 23
e 12 13
e 12 22
e 12 23
e 12 24
e 13 14
e 13 23
e 13 24
e 13 25
e 13 38
e 13 39
e 14 15
e 14 25
e 14 26
e 15 16
e 15 25
e 15 26
e 16 17
e 16 18
e 16 26
e 16 42
e 17 18
e 17 27
e 17 28
e 18 19
e 18 27
e 18 28
e 18 29
e 19 28
e 19 29
e 19 30
e 19 31
e 19 47
e 20 21
e 20 31
e 20 32
e 20 33
e 21 32
e 21 33
e 22 23
e 22 34
e 22 35
e 22 36
e 23 24
e 23 35
e 23 36
e 23 37
e 24 36
e 24 37
e 24 38
e 24 39
e 25 26
e 25 39
e 25 40
e 25 41
e 26 40
e 26 41
e 26 42
e 27 28
e 27 43
e 27 44
e 27 45
e 28 29
e 28 44
e 28 45
e 28 46
e 29 30
e 29 45
e 29 46
e 29 47
e 30 31
e 30 47
e 30 73
e 30 74
e 30 75
e 31 32
e 31 48
e 31 74
e 31 75
e 32 33
e 32 48
e 32 49
e 33 48
e 33 49
e 34 35
e 34 50
e 34 51
e 34 52
e 35 36
e 35 52
e 35 53
e 35 54
e 36 37
e 36 53
e 36 54
e 36 55
e 37 38
e 37 54
e 37 55
e 37 56
e 38 39
e 38 56
e 38 57
e 38 58
e 38 59
e 39 40
e 39 58
e 39 59
e 39 63
e 40 41
e 40 62
e 40 63
e 41 42
e 41 62
e 41 63
e 42 62
e 42 64
e 43 44
e 43 65
e 43 66
e 43 67
e 44 45
e 44 67
e 44 68
e 44 69
e 45 46
e 45 68
e 45 69
e 45 70
e 46 47
e 46 69
e 46 70
e 46 71
e 47 71
e 47 72
e 47 73
e 47 74
e 48 49
e 48 75
e 48 76
e 48 77
e 49 76
e 49 77
e 50 51
e 50 81
e 50 82
e 50 83
e 51 52
e 51 82
e 51 83
e 51 84
e 52 53
e 52 83
e 52 84
e 52 85
e 53 54
e 53 84
e 53 85
e 53 86
e 54 55
e 54 85
e 54 86
e 54 87
e 55 56
e 55 86
e 55 87
e 55 88
e 56 57
e 56 87
e 56 88
e 56 89
e 57 58
e 57 88
e 57 89
e 57 90
e 58 59
e 58 89
e 58 90
e 58 91
e 58 92
e 59 60
e 59 63
e 59 91
e 59 92
e 59 93
e 60 61
e 60 62
e 60 63
e 60 93
e 60 94
e 61 62
e 61 63
e 61 64
e 61 93
e 61 94
e 62 63
e 62 64
e 64 94
e 64 97
e 65 66
e 65 99
e 65 100
e 65 101
e 66 67
e 66 100
e 66 101
e 66 102
e 67 68
e 67 101
e 67 102
e 67 103
e 68 69
e 68 102
e 68 103
e 68 104
e 69 70
e 69 103
e 69 104
e 69 105
e 70 71
e 70 104
e 70 105
e 70 106
e 71 72
e 71 105
e 71 106
e 71 107
e 72 73
e 72 106
e 72 107
e 72 108
e 73 74
e 73 107
e 73 108
e 73 109
e 73 110
e 74 75
e 74 109
e 74 110
e 74 111
e 75 76
e 75 78
e 75 110
e 75 111
e 76 77
e 76 78
e 76 79
e 77 78
e 77 79
e 78 79
e 78 111
e 78 112
e 78 113
e 79 112
e 79 113
e 80 81
e 80 113
e 80 115
e 80 121
e 80 122
e 81 82
e 81 121
e 81 122
e 81 144
e 82 83
e 82 122
e 82 144
e 82 145
e 83 84
e 83 144
e 83 145
e 83 146
e 84 85
e 84 145
e 84 146
e 84 147
e 85 86
e 85 146
e 85 147
e 85 148
e 86 87
e 86 147
e 86 148
e 86 149
e 87 88
e 87 148
e 87 149
e 87 150
e 88 89
e 88 149
e 88 150
e 88 151
e 89 90
e 89 150
e 89 151
e 89 152
e 90 91
e 90 125
e 90 151
e 90 152
e 91 92
e 91 125
e 91 126
e 91 152
e 92 93
e 92 95
e 92 123
e 92 125
e 92 126
e 93 94
e 93 95
e 93 96
e 94 95
e 94 96
e 94 97
e 95 96
e 95 123
e 95 124
e 96 97
e 96 123
e 96 124
e 97 98
e 97 124
e 97 129
e 97 130
e 98 99
e 98 129
e 98 130
e 98 131
e 99 100
e 99 130
e 99 131
e 99 160
e 100 101
e 100 131
e 100 160
e 100 161
e 101 102
e 101 160
e 101 161
e 101 162
e 102 103
e 102 161
e 102 162
e 102 163
e 103 104
e 103 132
e 103 162
e 103 163
e 104 105
e 104 132
e 104 133
e 104 163
e 105 106
e 105 132
e 105 133
e 105 134
e 106 107
e 106 133
e 106 134
e 106 135
e 107 108
e 107 134
e 107 135
e 107 136
e 108 109
e 108 116
e 108 135
e 108 136
e 109 110
e 109 116
e 109 117
e 109 136
e 110 111
e 110 116
e 110 117
e 110 118
e 111 112
e 111 114
e 111 117
e 111 118
e 112 113
e 112 114
e 112 115
e 113 114
e 113 115
e 114 115
e 114 118
e 114 119
e 114 120
e 115 119
e 115 120
e 115 121
e 116 117
e 116 136
e 116 137
e 116 138
e 117 118
e 117 137
e 117 138
e 117 139
e 118 119
e 118 138
e 118 139
e 118 140
e 119 120
e 119 139
e 119 140
e 119 141
e 120 121
e 120 140
e 120 141
e 121 122
e 121 141
e 121 142
e 121 143
e 122 142
e 122 143
e 122 144
e 123 124
e 123 126
e 123 127
e 123 128
e 124 127
e 124 128
e 124 129
e 125 126
e 125 152
e 125 153
e 125 154
e 126 127
e 126 153
e 126 154
e 126 155
e 127 128
e 127 155
e 127 156
e 128 129
e 128 155
e 128 156
e 128 157
e 129 130
e 129 156
e 129 157
e 129 158
e 130 131
e 130 157
e 130 158
e 130 159
e 131 158
e 131 159
e 131 160
e 132 133
e 132 163
e 132 164
e 132 165
e 132 187
e 133 134
e 133 164
e 133 165
e 133 166
e 134 135
e 134 165
e 134 166
e 134 167
e 135 136
e 135 166
e 135 167
e 135 168
e 136 137
e 136 167
e 136 168
e 137 138
e 137 168
e 137 169
e 138 139
e 138 169
e 139 140
e 139 169
e 139 170
e 140 141
e 140 170
e 141 142
e 141 170
e 141 171
e 142 143
e 142 171
e 143 144
e 143 171
e 143 172
e 144 145
e 144 172
e 144 173
e 145 146
e 145 172
e 145 173
e 145 174
e 146 147
e 146 173
e 146 174
e 146 175
e 147 148
e 147 174
e 147 175
e 147 176
e 148 149
e 148 175
e 148 176
e 148 177
e 149 150
e 149 176
e 149 177
e 149 178
e 150 151
e 150 177
e 150 178
e 150 179
e 151 152
e 151 178
e 151 179
e 151 180
e 152 153
e 152 179
e 152 180
e 153 154
e 153 180
e 153 181
e 154 155
e 154 181
e 155 156
e 155 181
e 155 182
e 156 157
e 156 182
e 157 158
e 157 182
e 157 183
e 158 159
e 158 183
e 159 160
e 159 183
e 159 184
e 160 161
e 160 184
e 160 185
e 161 162
e 161 184
e 161 185
e 161 186
e 162 163
e 162 185
e 162 186
e 162 187
e 163 164
e 163 186
e 163 187
e 164 165
e 164 187
e 164 188
e 164 189
e 164 211
e 165 166
e 165 188
e 165 189
e 165 190
e 166 167
e 166 189
e 166 190
e 166 191
e 167 168
e 167 190
e 167 191
e 167 192
e 168 169
e 168 191
e 168 192
e 168 193
e 169 170
e 169 192
e 169 193
e 169 194
e 170 171
e 170 193
e 170 194
e 170 195
e 171 172
e 171 194
e 171 195
e 171 196
e 172 173
e 172 195
e 172 196
e 172 197
e 173 174
e 173 196
e 173 197
e 173 198
e 174 175
e 174 197
e 174 198
e 174 199
e 175 176
e 175 198
e 175 199
e 175 200
e 176 177
e 176 199
e 176 200
e 176 201
e 177 178
e 177 200
e 177 201
e 177 202
e 178 179
e 178 201
e 178 202
e 178 203
e 179 180
e 179 202
e 179 203
e 179 204
e 180 181
e 180 203
e 180 204
e 180 205
e 181 182
e 181 204
e 181 205
e 181 206
e 182 183
e 182 205
e 182 206
e 182 207
e 183 184
e 183 206
e 183 207
e 183 208
e 184 185
e 184 207
e 184 208
e 184 209
e 185 186
e 185 208
e 185 209
e 185 210
e 186 187
e 186 209
e 186 210
e 186 211
e 187 188
e 187 210
e 187 211
e 188 189
e 188 211
e 188 212
e 188 213
e 188 235
e 189 190
e 189 212
e 189 213
e 189 214
e 190 191
e 190 213
e 190 214
e 190 215
e 191 192
e 191 214
e 191 215
e 191 216
e 192 193
e 192 215
e 192 216
e 192 217
e 193 194
e 193 216
e 193 217
e 193 218
e 194 195
e 194 217
e 194 218
e 194 219
e 195 196
e 195 218
e 195 219
e 195 220
e 196 197
e 196 219
e 196 220
e 196 221
e 197 198
e 197 220
e 197 221
e 197 222
e 198 199
e 198 221
e 198 222
e 198 223
e 199 200
e 199 222
e 199 223
e 199 224
e 200 201
e 200 223
e 200 224
e 200 225
e 201 202
e 201 224
e 201 225
e 201 226
e 202 203
e 202 225
e 202 226
e 202 227
e 203 204
e 203 226
e 203 227
e 203 228
e 204 205
e 204 227
e 204 228
e 204 229
e 205 206
e 205 228
e 205 229
e 205 230
e 206 207
e 206 229
e 206 230
e 206 231
e 207 208
e 207 230
e 207 231
e 207 232
e 208 209
e 208 231
e 208 232
e 208 233
e 209 210
e 209 232
e 209 233
e 209 234
e 210 211
e 210 233
e 210 234
e 210 235
e 211 212
e 211 234
e 211 235
e 212 213
e 212 235
e 212 236
e 212 237
e 212 259
e 213 214
e 213 236
e 213 237
e 213 238
e 214 215
e 214 237
e 214 238
e 214 239
e 215 216
e 215 238
e 215 239
e 215 240
e 216 217
e 216 239
e 216 240
e 216 241
e 217 218
e 217 240
e 217 241
e 217 242
e 218 219
e 218 241
e 218 242
e 218 243
e 219 220
e 219 242
e 219 243
e 219 244
e 220 221
e 220 243
e 220 244
e 220 245
e 221 222
e 221 244
e 221 245
e 221 246
e 222 223
e 222 245
e 222 246
e 222 247
e 223 224
e 223 246
e 223 247
e 223 248
e 224 225
e 224 247
e 224 248
e 224 249
e 225 226
e 225 248
e 225 249
e 225 250
e 226 227
e 226 249
e 226 250
e 226 251
e 227 228
e 227 250
e 227 251
e 227 252
e 228 229
e 228 251
e 228 252
e 228 253
e 229 230
e 229 252
e 229 253
e 229 254
e 230 231
e 230 253
e 230 254
e 230 255
e 231 232
e 231 254
e 231 255
e 231 256
e 232 233
e 232 255
e 232 256
e 232 257
e 233 234
e 233 256
e 233 257
e 233 258
e 234 235
e 234 257
e 234 258
e 234 259
e 235 236
e 235 258
e 235 259
e 236 237
e 236 259
e 236 260
e 236 261
e 236 283
e 237 238
e 237 260
e 237 261
e 237 262
e 238 239
e 238 261
e 238 262
e 238 263
e 239 240
e 239 262
e 239 263
e 239 264
e 240 241
e 240 263
e 240 264
e 240 265
e 241 242
e 241 264
e 241 265
e 241 266
e 242 243
e 242 265
e 242 266
e 242 267
e 243 244
e 243 266
e 243 267
e 243 268
e 244 245
e 244 267
e 244 268
e 244 269
e 245 246
e 245 268
e 245 269
e 245 270
e 246 247
e 246 269
e 246 270
e 246 271
e 247 248
e 247 270
e 247 271
e 247 272
e 248 249
e 248 271
e 248 272
e 248 273
e 249 250
e 249 272
e 249 273
e 249 274
e 250 251
e 250 273
e 250 274
e 250 275
e 251 252
e 251 274
e 251 275
e 251 276
e 252 253
e 252 275
e 252 276
e 252 277
e 253 254
e 253 276
e 253 277
e 253 278
e 254 255
e 254 277
e 254 278
e 254 279
e 255 256
e 255 278
e 255 279
e 255 280
e 256 257
e 256 279
e 256 280
e 256 281
e 257 258
e 257 280
e 257 281
e 257 282
e 258 259
e 258 281
e 258 282
e 258 283
e 259 260
e 259 282
e 259 283
e 260 261
e 260 283
e 260 284
e 260 285
e 260 307
e 261 262
e 261 284
e 261 285
e 261 286
e 262 263
e 262 285
e 262 286
e 262 287
e 263 264
e 263 286
e 263 287
e 263 288
e 264 265
e 264 287
e 264 288
e 264 289
e 265 266
e 265 288
e 265 289
e 265 290
e 266 267
e 266 289
e 266 290
e 266 291
e 267 268
e 267 290
e 267 291
e 267 292
e 268 269
e 268 291
e 268 292
e 268 293
e 269 270
e 269 292
e 269 293
e 269 294
e 270 271
e 270 293
e 270 294
e 270 295
e 271 272
e 271 294
e 271 295
e 271 296
e 272 273
e 272 295
e 272 296
e 272 297
e 273 274
e 273 296
e 273 297
e 273 298
e 274 275
e 274 297
e 274 298
e 274 299
e 275 276
e 275 298
e 275 299
e 275 300
e 276 277
e 276 299
e 276 300
e 276 301
e 277 278
e 277 300
e 277 301
e 277 302
e 278 279
e 278 301
e 278 302
e 278 303
e 279 280
e 279 302
e 279 303
e 279 304
e 280 281
e 280 303
e 280 304
e 280 305
e 281 282
e 281 304
e 281 305
e 281 306
e 282 283
e 282 305
e 282 306
e 282 307
e 283 284
e 283 306
e 283 307
e 284 285
e 284 307
e 285 286
e 286 287
e 287 288
e 288 289
e 289 290
e 290 291
e 291 292
e 292 293
e 293 294
e 294 295
e 295 296
e 296 297
e 297 298
e 298 299
e 299 300
e 300 301
e 301 302
e 302 303
e 303 304
e 304 305
e 305 306
e 306 307
